150 7304
1 82 95 107 5 100 143 97 18 142 85 132 137 50 86 19 99 114 102 108 70 135 29 81 20 51 109 43 67 131 15 78 79 21 115 150 44 64 112 136 145 144 49 32 23 38 116 101 41 57 39 117 140 60 66 17 130 148 11 61 36 69 127 118 24 12 53 40 139 120 47 42 9 28 6 37 2 110 25 90 46 138 134 54 92 105 111 59 16 133 77 122 80 14 72 147 129 27 31 123 74 13 106 91 119 68 128 71 45 4 104 22 125 149 62 3 113 10 94 88 121 52 126 33 56 83 141 58 55 65 75 26 146 124 93 35 96 89 8 7 84 30 63 48 73 76 87 34 98 103 
